(set-logic QF_LRA)
(declare-fun X0 () Real )
(declare-fun Y0 () Real )
(declare-fun X1 () Real )
(declare-fun Y1 () Real )
(declare-fun X2 () Real )
(declare-fun Y2 () Real )
(declare-fun X3 () Real )
(declare-fun Y3 () Real )
(declare-fun X4 () Real )
(declare-fun Y4 () Real )
(declare-fun X5 () Real )
(declare-fun Y5 () Real )
(declare-fun Z () Real )
(declare-fun k () Real )
(assert (let
(( $goal (>= Z k) ))
(let
((
$phi ( and 
( or ( <= ( + X0 19 ) X1 )  ( <= ( + X1 17 ) X0 )  ( <= ( + Y0 69 ) Y1 )  ( <= ( + Y1 7 ) Y0 )  )
( or ( <= ( + X0 19 ) X2 )  ( <= ( + X2 70 ) X0 )  ( <= ( + Y0 69 ) Y2 )  ( <= ( + Y2 91 ) Y0 )  )
( or ( <= ( + X0 19 ) X3 )  ( <= ( + X3 42 ) X0 )  ( <= ( + Y0 69 ) Y3 )  ( <= ( + Y3 50 ) Y0 )  )
( or ( <= ( + X0 19 ) X4 )  ( <= ( + X4 4 ) X0 )  ( <= ( + Y0 69 ) Y4 )  ( <= ( + Y4 31 ) Y0 )  )
( or ( <= ( + X0 19 ) X5 )  ( <= ( + X5 59 ) X0 )  ( <= ( + Y0 69 ) Y5 )  ( <= ( + Y5 23 ) Y0 )  )
( or ( <= ( + X1 17 ) X2 )  ( <= ( + X2 70 ) X1 )  ( <= ( + Y1 7 ) Y2 )  ( <= ( + Y2 91 ) Y1 )  )
( or ( <= ( + X1 17 ) X3 )  ( <= ( + X3 42 ) X1 )  ( <= ( + Y1 7 ) Y3 )  ( <= ( + Y3 50 ) Y1 )  )
( or ( <= ( + X1 17 ) X4 )  ( <= ( + X4 4 ) X1 )  ( <= ( + Y1 7 ) Y4 )  ( <= ( + Y4 31 ) Y1 )  )
( or ( <= ( + X1 17 ) X5 )  ( <= ( + X5 59 ) X1 )  ( <= ( + Y1 7 ) Y5 )  ( <= ( + Y5 23 ) Y1 )  )
( or ( <= ( + X2 70 ) X3 )  ( <= ( + X3 42 ) X2 )  ( <= ( + Y2 91 ) Y3 )  ( <= ( + Y3 50 ) Y2 )  )
( or ( <= ( + X2 70 ) X4 )  ( <= ( + X4 4 ) X2 )  ( <= ( + Y2 91 ) Y4 )  ( <= ( + Y4 31 ) Y2 )  )
( or ( <= ( + X2 70 ) X5 )  ( <= ( + X5 59 ) X2 )  ( <= ( + Y2 91 ) Y5 )  ( <= ( + Y5 23 ) Y2 )  )
( or ( <= ( + X3 42 ) X4 )  ( <= ( + X4 4 ) X3 )  ( <= ( + Y3 50 ) Y4 )  ( <= ( + Y4 31 ) Y3 )  )
( or ( <= ( + X3 42 ) X5 )  ( <= ( + X5 59 ) X3 )  ( <= ( + Y3 50 ) Y5 )  ( <= ( + Y5 23 ) Y3 )  )
( or ( <= ( + X4 4 ) X5 )  ( <= ( + X5 59 ) X4 )  ( <= ( + Y4 31 ) Y5 )  ( <= ( + Y5 23 ) Y4 )  )
( >= X0 0)
( <= ( + X0 19) Z)
( >= Y0 0)
( <= ( + Y0 69 ) 122)
( >= X1 0)
( <= ( + X1 17) Z)
( >= Y1 0)
( <= ( + Y1 7 ) 122)
( >= X2 0)
( <= ( + X2 70) Z)
( >= Y2 0)
( <= ( + Y2 91 ) 122)
( >= X3 0)
( <= ( + X3 42) Z)
( >= Y3 0)
( <= ( + Y3 50 ) 122)
( >= X4 0)
( <= ( + X4 4) Z)
( >= Y4 0)
( <= ( + Y4 31 ) 122)
( >= X5 0)
( <= ( + X5 59) Z)
( >= Y5 0)
( <= ( + Y5 23 ) 122)
) )
)(=> $phi $goal))))